NAME: M-n101-k10
COMMENT: M and G instances of Bektas et al. (2011)
TYPE: GVRP
DIMENSION: 101
EDGE_WEIGHT_TYPE: EUC_2D
VEHICLES: 5
CAPACITY: 200
NODE_COORD_SECTION
1	40	50
2	45	68
3	45	70
4	42	66
5	42	68
6	42	65
7	40	69
8	40	66
9	38	68
10	38	70
11	35	66
12	35	69
13	25	85
14	22	75
15	22	85
16	20	80
17	20	85
18	18	75
19	15	75
20	15	80
21	30	50
22	30	52
23	28	52
24	28	55
25	25	50
26	25	52
27	25	55
28	23	52
29	23	55
30	20	50
31	20	55
32	10	35
33	10	40
34	8	40
35	8	45
36	5	35
37	5	45
38	2	40
39	0	40
40	0	45
41	35	30
42	35	32
43	33	32
44	33	35
45	32	30
46	30	30
47	30	32
48	30	35
49	28	30
50	28	35
51	26	32
52	25	30
53	25	35
54	44	5
55	42	10
56	42	15
57	40	5
58	40	15
59	38	5
60	38	15
61	35	5
62	50	30
63	50	35
64	50	40
65	48	30
66	48	40
67	47	35
68	47	40
69	45	30
70	45	35
71	95	30
72	95	35
73	53	30
74	92	30
75	53	35
76	45	65
77	90	35
78	88	30
79	88	35
80	87	30
81	85	25
82	85	35
83	75	55
84	72	55
85	70	58
86	68	60
87	66	55
88	65	55
89	65	60
90	63	58
91	60	55
92	60	60
93	67	85
94	65	85
95	65	82
96	62	80
97	60	80
98	60	85
99	58	75
100	55	80
101	55	85
DEMAND_SECTION
1	0
2	20
3	20
4	14
5	14
6	14
7	16
8	14
9	16
10	16
11	10
12	10
13	20
14	30
15	25
16	40
17	25
18	20
19	20
20	10
21	15
22	15
23	16
24	16
25	16
26	16
27	16
28	16
29	15
30	10
31	15
32	20
33	35
34	35
35	15
36	10
37	15
38	25
39	25
40	20
41	10
42	10
43	13
44	13
45	15
46	15
47	15
48	13
49	15
50	10
51	10
52	10
53	10
54	25
55	40
56	20
57	25
58	20
59	25
60	20
61	25
62	10
63	35
64	23
65	10
66	23
67	10
68	23
69	10
70	10
71	20
72	20
73	10
74	20
75	35
76	14
77	15
78	10
79	15
80	10
81	10
82	30
83	15
84	15
85	26
86	26
87	15
88	15
89	26
90	10
91	10
92	10
93	23
94	23
95	23
96	20
97	20
98	30
99	20
100	10
101	20
MUTUALLY_EXCLUSIVE_GROUP_SECTION
1	1
2	33
3	33
4	10
5	10
6	10
7	52
8	10
9	52
10	52
11	24
12	24
13	15
14	21
15	35
16	34
17	35
18	36
19	36
20	6
21	37
22	37
23	9
24	9
25	9
26	9
27	9
28	9
29	28
30	38
31	28
32	16
33	39
34	39
35	22
36	40
37	22
38	3
39	3
40	41
41	42
42	42
43	29
44	29
45	11
46	11
47	11
48	29
49	11
50	27
51	43
52	43
53	27
54	5
55	44
56	13
57	5
58	13
59	23
60	13
61	23
62	25
63	45
64	7
65	17
66	7
67	46
68	7
69	17
70	46
71	2
72	47
73	25
74	2
75	45
76	10
77	48
78	30
79	48
80	30
81	18
82	19
83	8
84	8
85	26
86	26
87	31
88	31
89	26
90	12
91	49
92	12
93	14
94	14
95	14
96	32
97	32
98	50
99	20
100	51
101	4
DEPOT_SECTION
1
EOF
